p cnf 997 3220
1 -2 0
1 -3 0
1 -4 0
1 -5 0
1 -6 0
1 -7 0
1 -8 0
1 -9 0
1 -10 0
1 -11 0
1 -12 0
1 -13 0
1 -14 0
1 -15 0
16 0
17 -1 0
1 -17 0
-3 18 0
-4 18 0
-5 18 0
-6 18 0
-7 18 0
-8 18 0
-9 18 0
-10 18 0
-11 18 0
-12 18 0
-13 18 0
-14 18 0
-15 18 0
19 0
20 -18 0
18 -20 0
-4 21 0
-5 21 0
-6 21 0
-7 21 0
-8 21 0
-9 21 0
-10 21 0
-11 21 0
-12 21 0
-13 21 0
-14 21 0
-15 21 0
22 0
23 -21 0
21 -23 0
-5 24 0
-6 24 0
-7 24 0
-8 24 0
-9 24 0
-10 24 0
-11 24 0
-12 24 0
-13 24 0
-14 24 0
-15 24 0
25 0
26 -24 0
24 -26 0
-6 27 0
-7 27 0
-8 27 0
-9 27 0
-10 27 0
-11 27 0
-12 27 0
-13 27 0
-14 27 0
-15 27 0
28 0
29 -27 0
27 -29 0
-7 30 0
-8 30 0
-9 30 0
-10 30 0
-11 30 0
-12 30 0
-13 30 0
-14 30 0
-15 30 0
31 0
32 -30 0
30 -32 0
-8 33 0
-9 33 0
-10 33 0
-11 33 0
-12 33 0
-13 33 0
-14 33 0
-15 33 0
34 0
35 -33 0
33 -35 0
36 -33 0
33 -36 0
37 -33 0
33 -37 0
38 -33 0
33 -38 0
39 -33 0
33 -39 0
40 -33 0
33 -40 0
41 -33 0
33 -41 0
42 -33 0
33 -42 0
43 -44 0
43 -45 0
43 -46 0
43 -47 0
43 -48 0
43 -49 0
43 -50 0
43 -51 0
43 -52 0
43 -53 0
54 0
55 -43 0
43 -55 0
-45 56 0
-46 56 0
-47 56 0
-48 56 0
-49 56 0
-50 56 0
-51 56 0
-52 56 0
-53 56 0
57 0
58 -56 0
56 -58 0
-46 59 0
-47 59 0
-48 59 0
-49 59 0
-50 59 0
-51 59 0
-52 59 0
-53 59 0
60 0
61 -59 0
59 -61 0
-47 62 0
-48 62 0
-49 62 0
-50 62 0
-51 62 0
-52 62 0
-53 62 0
63 0
64 -62 0
62 -64 0
-48 65 0
-49 65 0
-50 65 0
-51 65 0
-52 65 0
-53 65 0
66 0
67 -65 0
65 -67 0
68 -65 0
65 -68 0
69 -65 0
65 -69 0
70 -65 0
65 -70 0
71 -65 0
65 -71 0
72 -65 0
65 -72 0
73 -74 0
73 -75 0
73 -76 0
73 -77 0
73 -78 0
73 -79 0
73 -80 0
73 -81 0
73 -82 0
73 -83 0
73 -84 0
73 -85 0
86 0
87 -73 0
73 -87 0
-75 88 0
-76 88 0
-77 88 0
-78 88 0
-79 88 0
-80 88 0
-81 88 0
-82 88 0
-83 88 0
-84 88 0
-85 88 0
89 0
90 -88 0
88 -90 0
-76 91 0
-77 91 0
-78 91 0
-79 91 0
-80 91 0
-81 91 0
-82 91 0
-83 91 0
-84 91 0
-85 91 0
92 0
93 -91 0
91 -93 0
-77 94 0
-78 94 0
-79 94 0
-80 94 0
-81 94 0
-82 94 0
-83 94 0
-84 94 0
-85 94 0
95 0
96 -94 0
94 -96 0
-78 97 0
-79 97 0
-80 97 0
-81 97 0
-82 97 0
-83 97 0
-84 97 0
-85 97 0
98 0
99 -97 0
97 -99 0
100 -97 0
97 -100 0
101 -97 0
97 -101 0
102 -97 0
97 -102 0
103 -97 0
97 -103 0
104 -97 0
97 -104 0
105 -97 0
97 -105 0
106 -97 0
97 -106 0
107 -108 0
107 -109 0
107 -110 0
107 -111 0
107 -112 0
107 -113 0
107 -114 0
107 -115 0
107 -116 0
107 -117 0
107 -118 0
107 -119 0
107 -120 0
107 -121 0
122 0
123 -107 0
107 -123 0
-109 124 0
-110 124 0
-111 124 0
-112 124 0
-113 124 0
-114 124 0
-115 124 0
-116 124 0
-117 124 0
-118 124 0
-119 124 0
-120 124 0
-121 124 0
125 0
126 -124 0
124 -126 0
-110 127 0
-111 127 0
-112 127 0
-113 127 0
-114 127 0
-115 127 0
-116 127 0
-117 127 0
-118 127 0
-119 127 0
-120 127 0
-121 127 0
128 0
129 -127 0
127 -129 0
-111 130 0
-112 130 0
-113 130 0
-114 130 0
-115 130 0
-116 130 0
-117 130 0
-118 130 0
-119 130 0
-120 130 0
-121 130 0
131 0
132 -130 0
130 -132 0
-112 133 0
-113 133 0
-114 133 0
-115 133 0
-116 133 0
-117 133 0
-118 133 0
-119 133 0
-120 133 0
-121 133 0
134 0
135 -133 0
133 -135 0
-113 136 0
-114 136 0
-115 136 0
-116 136 0
-117 136 0
-118 136 0
-119 136 0
-120 136 0
-121 136 0
137 0
138 -136 0
136 -138 0
-114 139 0
-115 139 0
-116 139 0
-117 139 0
-118 139 0
-119 139 0
-120 139 0
-121 139 0
140 0
141 -139 0
139 -141 0
-115 142 0
-116 142 0
-117 142 0
-118 142 0
-119 142 0
-120 142 0
-121 142 0
143 0
144 -142 0
142 -144 0
145 -142 0
142 -145 0
146 -142 0
142 -146 0
147 -142 0
142 -147 0
148 -142 0
142 -148 0
149 -142 0
142 -149 0
150 -142 0
142 -150 0
151 -152 0
151 -153 0
151 -154 0
151 -155 0
151 -156 0
151 -157 0
151 -158 0
151 -159 0
151 -160 0
151 -161 0
151 -162 0
163 0
164 -151 0
151 -164 0
-153 165 0
-154 165 0
-155 165 0
-156 165 0
-157 165 0
-158 165 0
-159 165 0
-160 165 0
-161 165 0
-162 165 0
166 0
167 -165 0
165 -167 0
-154 168 0
-155 168 0
-156 168 0
-157 168 0
-158 168 0
-159 168 0
-160 168 0
-161 168 0
-162 168 0
169 0
170 -168 0
168 -170 0
-155 171 0
-156 171 0
-157 171 0
-158 171 0
-159 171 0
-160 171 0
-161 171 0
-162 171 0
172 0
173 -171 0
171 -173 0
-156 174 0
-157 174 0
-158 174 0
-159 174 0
-160 174 0
-161 174 0
-162 174 0
175 0
176 -174 0
174 -176 0
177 -174 0
174 -177 0
178 -174 0
174 -178 0
179 -174 0
174 -179 0
180 -174 0
174 -180 0
181 -174 0
174 -181 0
182 -174 0
174 -182 0
183 -184 0
183 -185 0
183 -186 0
183 -187 0
183 -188 0
183 -189 0
183 -190 0
183 -191 0
183 -192 0
183 -193 0
183 -194 0
195 0
196 -183 0
183 -196 0
-185 197 0
-186 197 0
-187 197 0
-188 197 0
-189 197 0
-190 197 0
-191 197 0
-192 197 0
-193 197 0
-194 197 0
198 0
199 -197 0
197 -199 0
-186 200 0
-187 200 0
-188 200 0
-189 200 0
-190 200 0
-191 200 0
-192 200 0
-193 200 0
-194 200 0
201 0
202 -200 0
200 -202 0
-187 203 0
-188 203 0
-189 203 0
-190 203 0
-191 203 0
-192 203 0
-193 203 0
-194 203 0
204 0
205 -203 0
203 -205 0
-188 206 0
-189 206 0
-190 206 0
-191 206 0
-192 206 0
-193 206 0
-194 206 0
207 0
208 -206 0
206 -208 0
-189 209 0
-190 209 0
-191 209 0
-192 209 0
-193 209 0
-194 209 0
210 0
211 -209 0
209 -211 0
212 -209 0
209 -212 0
213 -209 0
209 -213 0
214 -209 0
209 -214 0
215 -209 0
209 -215 0
216 -209 0
209 -216 0
217 -218 0
217 -219 0
217 -220 0
217 -221 0
217 -222 0
217 -223 0
217 -224 0
217 -225 0
217 -226 0
217 -227 0
217 -228 0
217 -229 0
217 -230 0
217 -231 0
217 -232 0
233 0
234 -217 0
217 -234 0
-219 235 0
-220 235 0
-221 235 0
-222 235 0
-223 235 0
-224 235 0
-225 235 0
-226 235 0
-227 235 0
-228 235 0
-229 235 0
-230 235 0
-231 235 0
-232 235 0
236 0
237 -235 0
235 -237 0
-220 238 0
-221 238 0
-222 238 0
-223 238 0
-224 238 0
-225 238 0
-226 238 0
-227 238 0
-228 238 0
-229 238 0
-230 238 0
-231 238 0
-232 238 0
239 0
240 -238 0
238 -240 0
-221 241 0
-222 241 0
-223 241 0
-224 241 0
-225 241 0
-226 241 0
-227 241 0
-228 241 0
-229 241 0
-230 241 0
-231 241 0
-232 241 0
242 0
243 -241 0
241 -243 0
-222 244 0
-223 244 0
-224 244 0
-225 244 0
-226 244 0
-227 244 0
-228 244 0
-229 244 0
-230 244 0
-231 244 0
-232 244 0
245 0
246 -244 0
244 -246 0
-223 247 0
-224 247 0
-225 247 0
-226 247 0
-227 247 0
-228 247 0
-229 247 0
-230 247 0
-231 247 0
-232 247 0
248 0
249 -247 0
247 -249 0
-224 250 0
-225 250 0
-226 250 0
-227 250 0
-228 250 0
-229 250 0
-230 250 0
-231 250 0
-232 250 0
251 0
252 -250 0
250 -252 0
-225 253 0
-226 253 0
-227 253 0
-228 253 0
-229 253 0
-230 253 0
-231 253 0
-232 253 0
254 0
255 -253 0
253 -255 0
-226 256 0
-227 256 0
-228 256 0
-229 256 0
-230 256 0
-231 256 0
-232 256 0
257 0
258 -256 0
256 -258 0
259 -256 0
256 -259 0
260 -256 0
256 -260 0
261 -256 0
256 -261 0
262 -256 0
256 -262 0
263 -256 0
256 -263 0
264 -256 0
256 -264 0
265 -266 0
265 -267 0
265 -268 0
265 -269 0
265 -270 0
265 -271 0
265 -272 0
265 -273 0
265 -274 0
265 -275 0
265 -276 0
277 0
278 -265 0
265 -278 0
-267 279 0
-268 279 0
-269 279 0
-270 279 0
-271 279 0
-272 279 0
-273 279 0
-274 279 0
-275 279 0
-276 279 0
280 0
281 -279 0
279 -281 0
-268 282 0
-269 282 0
-270 282 0
-271 282 0
-272 282 0
-273 282 0
-274 282 0
-275 282 0
-276 282 0
283 0
284 -282 0
282 -284 0
-269 285 0
-270 285 0
-271 285 0
-272 285 0
-273 285 0
-274 285 0
-275 285 0
-276 285 0
286 0
287 -285 0
285 -287 0
-270 288 0
-271 288 0
-272 288 0
-273 288 0
-274 288 0
-275 288 0
-276 288 0
289 0
290 -288 0
288 -290 0
291 -288 0
288 -291 0
292 -288 0
288 -292 0
293 -288 0
288 -293 0
294 -288 0
288 -294 0
295 -288 0
288 -295 0
296 -288 0
288 -296 0
297 -298 0
297 -299 0
297 -300 0
297 -301 0
297 -302 0
297 -303 0
297 -304 0
297 -305 0
297 -306 0
297 -307 0
297 -308 0
297 -309 0
297 -310 0
297 -311 0
312 0
313 -297 0
297 -313 0
-299 314 0
-300 314 0
-301 314 0
-302 314 0
-303 314 0
-304 314 0
-305 314 0
-306 314 0
-307 314 0
-308 314 0
-309 314 0
-310 314 0
-311 314 0
315 0
316 -314 0
314 -316 0
-300 317 0
-301 317 0
-302 317 0
-303 317 0
-304 317 0
-305 317 0
-306 317 0
-307 317 0
-308 317 0
-309 317 0
-310 317 0
-311 317 0
318 0
319 -317 0
317 -319 0
-301 320 0
-302 320 0
-303 320 0
-304 320 0
-305 320 0
-306 320 0
-307 320 0
-308 320 0
-309 320 0
-310 320 0
-311 320 0
321 0
322 -320 0
320 -322 0
-302 323 0
-303 323 0
-304 323 0
-305 323 0
-306 323 0
-307 323 0
-308 323 0
-309 323 0
-310 323 0
-311 323 0
324 0
325 -323 0
323 -325 0
-303 326 0
-304 326 0
-305 326 0
-306 326 0
-307 326 0
-308 326 0
-309 326 0
-310 326 0
-311 326 0
327 0
328 -326 0
326 -328 0
-304 329 0
-305 329 0
-306 329 0
-307 329 0
-308 329 0
-309 329 0
-310 329 0
-311 329 0
330 0
331 -329 0
329 -331 0
-305 332 0
-306 332 0
-307 332 0
-308 332 0
-309 332 0
-310 332 0
-311 332 0
333 0
334 -332 0
332 -334 0
335 -332 0
332 -335 0
336 -332 0
332 -336 0
337 -332 0
332 -337 0
338 -332 0
332 -338 0
339 -332 0
332 -339 0
340 -332 0
332 -340 0
341 -342 0
341 -343 0
341 -344 0
341 -345 0
341 -346 0
341 -347 0
341 -348 0
341 -349 0
341 -350 0
341 -351 0
341 -352 0
341 -353 0
354 0
355 -341 0
341 -355 0
-343 356 0
-344 356 0
-345 356 0
-346 356 0
-347 356 0
-348 356 0
-349 356 0
-350 356 0
-351 356 0
-352 356 0
-353 356 0
357 0
358 -356 0
356 -358 0
-344 359 0
-345 359 0
-346 359 0
-347 359 0
-348 359 0
-349 359 0
-350 359 0
-351 359 0
-352 359 0
-353 359 0
360 0
361 -359 0
359 -361 0
-345 362 0
-346 362 0
-347 362 0
-348 362 0
-349 362 0
-350 362 0
-351 362 0
-352 362 0
-353 362 0
363 0
364 -362 0
362 -364 0
-346 365 0
-347 365 0
-348 365 0
-349 365 0
-350 365 0
-351 365 0
-352 365 0
-353 365 0
366 0
367 -365 0
365 -367 0
-347 368 0
-348 368 0
-349 368 0
-350 368 0
-351 368 0
-352 368 0
-353 368 0
369 0
370 -368 0
368 -370 0
371 -368 0
368 -371 0
372 -368 0
368 -372 0
373 -368 0
368 -373 0
374 -368 0
368 -374 0
375 -368 0
368 -375 0
376 -368 0
368 -376 0
377 -378 0
377 -379 0
377 -380 0
377 -381 0
377 -382 0
377 -383 0
377 -384 0
377 -385 0
377 -386 0
377 -387 0
377 -388 0
377 -389 0
377 -390 0
391 0
392 -377 0
377 -392 0
-379 393 0
-380 393 0
-381 393 0
-382 393 0
-383 393 0
-384 393 0
-385 393 0
-386 393 0
-387 393 0
-388 393 0
-389 393 0
-390 393 0
394 0
395 -393 0
393 -395 0
-380 396 0
-381 396 0
-382 396 0
-383 396 0
-384 396 0
-385 396 0
-386 396 0
-387 396 0
-388 396 0
-389 396 0
-390 396 0
397 0
398 -396 0
396 -398 0
-381 399 0
-382 399 0
-383 399 0
-384 399 0
-385 399 0
-386 399 0
-387 399 0
-388 399 0
-389 399 0
-390 399 0
400 0
401 -399 0
399 -401 0
-382 402 0
-383 402 0
-384 402 0
-385 402 0
-386 402 0
-387 402 0
-388 402 0
-389 402 0
-390 402 0
403 0
404 -402 0
402 -404 0
-383 405 0
-384 405 0
-385 405 0
-386 405 0
-387 405 0
-388 405 0
-389 405 0
-390 405 0
406 0
407 -405 0
405 -407 0
-384 408 0
-385 408 0
-386 408 0
-387 408 0
-388 408 0
-389 408 0
-390 408 0
409 0
410 -408 0
408 -410 0
-385 411 0
-386 411 0
-387 411 0
-388 411 0
-389 411 0
-390 411 0
412 0
413 -411 0
411 -413 0
414 -411 0
411 -414 0
415 -411 0
411 -415 0
416 -411 0
411 -416 0
417 -411 0
411 -417 0
418 -411 0
411 -418 0
419 -420 0
419 -421 0
419 -422 0
419 -423 0
419 -424 0
419 -425 0
419 -426 0
419 -427 0
419 -428 0
419 -429 0
419 -430 0
419 -431 0
419 -432 0
433 0
434 -419 0
419 -434 0
-421 435 0
-422 435 0
-423 435 0
-424 435 0
-425 435 0
-426 435 0
-427 435 0
-428 435 0
-429 435 0
-430 435 0
-431 435 0
-432 435 0
436 0
437 -435 0
435 -437 0
-422 438 0
-423 438 0
-424 438 0
-425 438 0
-426 438 0
-427 438 0
-428 438 0
-429 438 0
-430 438 0
-431 438 0
-432 438 0
439 0
440 -438 0
438 -440 0
-423 441 0
-424 441 0
-425 441 0
-426 441 0
-427 441 0
-428 441 0
-429 441 0
-430 441 0
-431 441 0
-432 441 0
442 0
443 -441 0
441 -443 0
-424 444 0
-425 444 0
-426 444 0
-427 444 0
-428 444 0
-429 444 0
-430 444 0
-431 444 0
-432 444 0
445 0
446 -444 0
444 -446 0
-425 447 0
-426 447 0
-427 447 0
-428 447 0
-429 447 0
-430 447 0
-431 447 0
-432 447 0
448 0
449 -447 0
447 -449 0
-426 450 0
-427 450 0
-428 450 0
-429 450 0
-430 450 0
-431 450 0
-432 450 0
451 0
452 -450 0
450 -452 0
453 -450 0
450 -453 0
454 -450 0
450 -454 0
455 -450 0
450 -455 0
456 -450 0
450 -456 0
457 -450 0
450 -457 0
458 -450 0
450 -458 0
459 -460 0
459 -461 0
459 -462 0
459 -463 0
459 -464 0
459 -465 0
459 -466 0
459 -467 0
459 -468 0
459 -469 0
459 -470 0
471 0
472 -459 0
459 -472 0
-461 473 0
-462 473 0
-463 473 0
-464 473 0
-465 473 0
-466 473 0
-467 473 0
-468 473 0
-469 473 0
-470 473 0
474 0
475 -473 0
473 -475 0
-462 476 0
-463 476 0
-464 476 0
-465 476 0
-466 476 0
-467 476 0
-468 476 0
-469 476 0
-470 476 0
477 0
478 -476 0
476 -478 0
-463 479 0
-464 479 0
-465 479 0
-466 479 0
-467 479 0
-468 479 0
-469 479 0
-470 479 0
480 0
481 -479 0
479 -481 0
-464 482 0
-465 482 0
-466 482 0
-467 482 0
-468 482 0
-469 482 0
-470 482 0
483 0
484 -482 0
482 -484 0
485 -482 0
482 -485 0
486 -482 0
482 -486 0
487 -482 0
482 -487 0
488 -482 0
482 -488 0
489 -482 0
482 -489 0
490 -482 0
482 -490 0
491 -492 0
491 -493 0
491 -494 0
491 -495 0
491 -496 0
491 -497 0
491 -498 0
491 -499 0
491 -500 0
491 -501 0
491 -502 0
491 -503 0
491 -504 0
491 -505 0
506 0
507 -491 0
491 -507 0
-493 508 0
-494 508 0
-495 508 0
-496 508 0
-497 508 0
-498 508 0
-499 508 0
-500 508 0
-501 508 0
-502 508 0
-503 508 0
-504 508 0
-505 508 0
509 0
510 -508 0
508 -510 0
-494 511 0
-495 511 0
-496 511 0
-497 511 0
-498 511 0
-499 511 0
-500 511 0
-501 511 0
-502 511 0
-503 511 0
-504 511 0
-505 511 0
512 0
513 -511 0
511 -513 0
-495 514 0
-496 514 0
-497 514 0
-498 514 0
-499 514 0
-500 514 0
-501 514 0
-502 514 0
-503 514 0
-504 514 0
-505 514 0
515 0
516 -514 0
514 -516 0
-496 517 0
-497 517 0
-498 517 0
-499 517 0
-500 517 0
-501 517 0
-502 517 0
-503 517 0
-504 517 0
-505 517 0
518 0
519 -517 0
517 -519 0
-497 520 0
-498 520 0
-499 520 0
-500 520 0
-501 520 0
-502 520 0
-503 520 0
-504 520 0
-505 520 0
521 0
522 -520 0
520 -522 0
-498 523 0
-499 523 0
-500 523 0
-501 523 0
-502 523 0
-503 523 0
-504 523 0
-505 523 0
524 0
525 -523 0
523 -525 0
-499 526 0
-500 526 0
-501 526 0
-502 526 0
-503 526 0
-504 526 0
-505 526 0
527 0
528 -526 0
526 -528 0
-500 529 0
-501 529 0
-502 529 0
-503 529 0
-504 529 0
-505 529 0
530 0
531 -529 0
529 -531 0
532 -529 0
529 -532 0
533 -529 0
529 -533 0
534 -529 0
529 -534 0
535 -529 0
529 -535 0
536 -529 0
529 -536 0
537 -538 0
537 -539 0
537 -540 0
537 -541 0
537 -542 0
537 -543 0
537 -544 0
537 -545 0
537 -546 0
537 -547 0
537 -548 0
537 -549 0
550 0
551 -537 0
537 -551 0
-539 552 0
-540 552 0
-541 552 0
-542 552 0
-543 552 0
-544 552 0
-545 552 0
-546 552 0
-547 552 0
-548 552 0
-549 552 0
553 0
554 -552 0
552 -554 0
-540 555 0
-541 555 0
-542 555 0
-543 555 0
-544 555 0
-545 555 0
-546 555 0
-547 555 0
-548 555 0
-549 555 0
556 0
557 -555 0
555 -557 0
-541 558 0
-542 558 0
-543 558 0
-544 558 0
-545 558 0
-546 558 0
-547 558 0
-548 558 0
-549 558 0
559 0
560 -558 0
558 -560 0
-542 561 0
-543 561 0
-544 561 0
-545 561 0
-546 561 0
-547 561 0
-548 561 0
-549 561 0
562 0
563 -561 0
561 -563 0
-543 564 0
-544 564 0
-545 564 0
-546 564 0
-547 564 0
-548 564 0
-549 564 0
565 0
566 -564 0
564 -566 0
567 -564 0
564 -567 0
568 -564 0
564 -568 0
569 -564 0
564 -569 0
570 -564 0
564 -570 0
571 -564 0
564 -571 0
572 -564 0
564 -572 0
573 -574 0
573 -575 0
573 -576 0
573 -577 0
573 -578 0
573 -579 0
573 -580 0
573 -581 0
573 -582 0
573 -583 0
573 -584 0
573 -585 0
586 0
587 -573 0
573 -587 0
-575 588 0
-576 588 0
-577 588 0
-578 588 0
-579 588 0
-580 588 0
-581 588 0
-582 588 0
-583 588 0
-584 588 0
-585 588 0
589 0
590 -588 0
588 -590 0
-576 591 0
-577 591 0
-578 591 0
-579 591 0
-580 591 0
-581 591 0
-582 591 0
-583 591 0
-584 591 0
-585 591 0
592 0
593 -591 0
591 -593 0
-577 594 0
-578 594 0
-579 594 0
-580 594 0
-581 594 0
-582 594 0
-583 594 0
-584 594 0
-585 594 0
595 0
596 -594 0
594 -596 0
-578 597 0
-579 597 0
-580 597 0
-581 597 0
-582 597 0
-583 597 0
-584 597 0
-585 597 0
598 0
599 -597 0
597 -599 0
-579 600 0
-580 600 0
-581 600 0
-582 600 0
-583 600 0
-584 600 0
-585 600 0
601 0
602 -600 0
600 -602 0
603 -600 0
600 -603 0
604 -600 0
600 -604 0
605 -600 0
600 -605 0
606 -600 0
600 -606 0
607 -600 0
600 -607 0
608 -600 0
600 -608 0
609 -610 0
609 -611 0
609 -612 0
609 -613 0
609 -614 0
609 -615 0
609 -616 0
617 0
618 -609 0
609 -618 0
-611 619 0
-612 619 0
-613 619 0
-614 619 0
-615 619 0
-616 619 0
620 0
621 -619 0
619 -621 0
-612 622 0
-613 622 0
-614 622 0
-615 622 0
-616 622 0
623 0
624 -622 0
622 -624 0
-613 625 0
-614 625 0
-615 625 0
-616 625 0
613 614 615 616 -625 0
626 -625 0
625 -626 0
-614 627 0
-615 627 0
-616 627 0
614 615 616 -627 0
628 -627 0
627 -628 0
-615 629 0
-616 629 0
615 616 -629 0
630 -629 0
629 -630 0
631 -616 0
616 -631 0
632 -633 0
632 -634 0
632 -635 0
632 -636 0
632 -637 0
632 -638 0
632 -639 0
632 -640 0
632 -641 0
632 -642 0
632 -643 0
632 -644 0
632 -645 0
646 0
647 -632 0
632 -647 0
-634 648 0
-635 648 0
-636 648 0
-637 648 0
-638 648 0
-639 648 0
-640 648 0
-641 648 0
-642 648 0
-643 648 0
-644 648 0
-645 648 0
649 0
650 -648 0
648 -650 0
-635 651 0
-636 651 0
-637 651 0
-638 651 0
-639 651 0
-640 651 0
-641 651 0
-642 651 0
-643 651 0
-644 651 0
-645 651 0
652 0
653 -651 0
651 -653 0
-636 654 0
-637 654 0
-638 654 0
-639 654 0
-640 654 0
-641 654 0
-642 654 0
-643 654 0
-644 654 0
-645 654 0
655 0
656 -654 0
654 -656 0
-637 657 0
-638 657 0
-639 657 0
-640 657 0
-641 657 0
-642 657 0
-643 657 0
-644 657 0
-645 657 0
658 0
659 -657 0
657 -659 0
-638 660 0
-639 660 0
-640 660 0
-641 660 0
-642 660 0
-643 660 0
-644 660 0
-645 660 0
661 0
662 -660 0
660 -662 0
-639 663 0
-640 663 0
-641 663 0
-642 663 0
-643 663 0
-644 663 0
-645 663 0
664 0
665 -663 0
663 -665 0
-640 666 0
-641 666 0
-642 666 0
-643 666 0
-644 666 0
-645 666 0
667 0
668 -666 0
666 -668 0
669 -666 0
666 -669 0
670 -666 0
666 -670 0
671 -666 0
666 -671 0
672 -666 0
666 -672 0
673 -666 0
666 -673 0
674 -675 0
674 -676 0
674 -677 0
674 -678 0
674 -679 0
674 -680 0
674 -681 0
674 -682 0
674 -683 0
674 -684 0
674 -685 0
674 -686 0
674 -687 0
674 -688 0
674 -689 0
674 -690 0
691 0
692 -674 0
674 -692 0
-676 693 0
-677 693 0
-678 693 0
-679 693 0
-680 693 0
-681 693 0
-682 693 0
-683 693 0
-684 693 0
-685 693 0
-686 693 0
-687 693 0
-688 693 0
-689 693 0
-690 693 0
694 0
695 -693 0
693 -695 0
-677 696 0
-678 696 0
-679 696 0
-680 696 0
-681 696 0
-682 696 0
-683 696 0
-684 696 0
-685 696 0
-686 696 0
-687 696 0
-688 696 0
-689 696 0
-690 696 0
697 0
698 -696 0
696 -698 0
-678 699 0
-679 699 0
-680 699 0
-681 699 0
-682 699 0
-683 699 0
-684 699 0
-685 699 0
-686 699 0
-687 699 0
-688 699 0
-689 699 0
-690 699 0
700 0
701 -699 0
699 -701 0
-679 702 0
-680 702 0
-681 702 0
-682 702 0
-683 702 0
-684 702 0
-685 702 0
-686 702 0
-687 702 0
-688 702 0
-689 702 0
-690 702 0
703 0
704 -702 0
702 -704 0
-680 705 0
-681 705 0
-682 705 0
-683 705 0
-684 705 0
-685 705 0
-686 705 0
-687 705 0
-688 705 0
-689 705 0
-690 705 0
706 0
707 -705 0
705 -707 0
-681 708 0
-682 708 0
-683 708 0
-684 708 0
-685 708 0
-686 708 0
-687 708 0
-688 708 0
-689 708 0
-690 708 0
709 0
710 -708 0
708 -710 0
-682 711 0
-683 711 0
-684 711 0
-685 711 0
-686 711 0
-687 711 0
-688 711 0
-689 711 0
-690 711 0
712 0
713 -711 0
711 -713 0
-683 714 0
-684 714 0
-685 714 0
-686 714 0
-687 714 0
-688 714 0
-689 714 0
-690 714 0
715 0
716 -714 0
714 -716 0
717 -714 0
714 -717 0
718 -714 0
714 -718 0
719 -714 0
714 -719 0
720 -714 0
714 -720 0
721 -714 0
714 -721 0
722 -714 0
714 -722 0
723 -714 0
714 -723 0
724 -725 0
724 -726 0
724 -727 0
724 -728 0
724 -729 0
724 -730 0
724 -731 0
724 -732 0
724 -733 0
724 -734 0
724 -735 0
724 -736 0
737 0
738 -724 0
724 -738 0
-726 739 0
-727 739 0
-728 739 0
-729 739 0
-730 739 0
-731 739 0
-732 739 0
-733 739 0
-734 739 0
-735 739 0
-736 739 0
740 0
741 -739 0
739 -741 0
-727 742 0
-728 742 0
-729 742 0
-730 742 0
-731 742 0
-732 742 0
-733 742 0
-734 742 0
-735 742 0
-736 742 0
743 0
744 -742 0
742 -744 0
-728 745 0
-729 745 0
-730 745 0
-731 745 0
-732 745 0
-733 745 0
-734 745 0
-735 745 0
-736 745 0
746 0
747 -745 0
745 -747 0
-729 748 0
-730 748 0
-731 748 0
-732 748 0
-733 748 0
-734 748 0
-735 748 0
-736 748 0
749 0
750 -748 0
748 -750 0
-730 751 0
-731 751 0
-732 751 0
-733 751 0
-734 751 0
-735 751 0
-736 751 0
752 0
753 -751 0
751 -753 0
754 -751 0
751 -754 0
755 -751 0
751 -755 0
756 -751 0
751 -756 0
757 -751 0
751 -757 0
758 -751 0
751 -758 0
759 -751 0
751 -759 0
760 -761 0
760 -762 0
760 -763 0
760 -764 0
760 -765 0
760 -766 0
760 -767 0
760 -768 0
760 -769 0
770 0
771 -760 0
760 -771 0
-762 772 0
-763 772 0
-764 772 0
-765 772 0
-766 772 0
-767 772 0
-768 772 0
-769 772 0
773 0
774 -772 0
772 -774 0
-763 775 0
-764 775 0
-765 775 0
-766 775 0
-767 775 0
-768 775 0
-769 775 0
776 0
777 -775 0
775 -777 0
-764 778 0
-765 778 0
-766 778 0
-767 778 0
-768 778 0
-769 778 0
779 0
780 -778 0
778 -780 0
781 -778 0
778 -781 0
782 -778 0
778 -782 0
783 -778 0
778 -783 0
784 -778 0
778 -784 0
785 -778 0
778 -785 0
786 -787 0
786 -788 0
786 -789 0
786 -790 0
786 -791 0
786 -792 0
786 -793 0
786 -794 0
786 -795 0
786 -796 0
786 -797 0
786 -798 0
786 -799 0
786 -800 0
801 0
802 -786 0
786 -802 0
-788 803 0
-789 803 0
-790 803 0
-791 803 0
-792 803 0
-793 803 0
-794 803 0
-795 803 0
-796 803 0
-797 803 0
-798 803 0
-799 803 0
-800 803 0
804 0
805 -803 0
803 -805 0
-789 806 0
-790 806 0
-791 806 0
-792 806 0
-793 806 0
-794 806 0
-795 806 0
-796 806 0
-797 806 0
-798 806 0
-799 806 0
-800 806 0
807 0
808 -806 0
806 -808 0
-790 809 0
-791 809 0
-792 809 0
-793 809 0
-794 809 0
-795 809 0
-796 809 0
-797 809 0
-798 809 0
-799 809 0
-800 809 0
810 0
811 -809 0
809 -811 0
-791 812 0
-792 812 0
-793 812 0
-794 812 0
-795 812 0
-796 812 0
-797 812 0
-798 812 0
-799 812 0
-800 812 0
813 0
814 -812 0
812 -814 0
-792 815 0
-793 815 0
-794 815 0
-795 815 0
-796 815 0
-797 815 0
-798 815 0
-799 815 0
-800 815 0
816 0
817 -815 0
815 -817 0
-793 818 0
-794 818 0
-795 818 0
-796 818 0
-797 818 0
-798 818 0
-799 818 0
-800 818 0
819 0
820 -818 0
818 -820 0
821 -818 0
818 -821 0
822 -818 0
818 -822 0
823 -818 0
818 -823 0
824 -818 0
818 -824 0
825 -818 0
818 -825 0
826 -818 0
818 -826 0
827 -818 0
818 -827 0
828 -829 0
828 -830 0
828 -831 0
828 -832 0
828 -833 0
828 -834 0
828 -835 0
828 -836 0
828 -837 0
828 -838 0
828 -839 0
828 -840 0
828 -841 0
828 -842 0
843 0
844 -828 0
828 -844 0
-830 845 0
-831 845 0
-832 845 0
-833 845 0
-834 845 0
-835 845 0
-836 845 0
-837 845 0
-838 845 0
-839 845 0
-840 845 0
-841 845 0
-842 845 0
846 0
847 -845 0
845 -847 0
-831 848 0
-832 848 0
-833 848 0
-834 848 0
-835 848 0
-836 848 0
-837 848 0
-838 848 0
-839 848 0
-840 848 0
-841 848 0
-842 848 0
849 0
850 -848 0
848 -850 0
-832 851 0
-833 851 0
-834 851 0
-835 851 0
-836 851 0
-837 851 0
-838 851 0
-839 851 0
-840 851 0
-841 851 0
-842 851 0
852 0
853 -851 0
851 -853 0
-833 854 0
-834 854 0
-835 854 0
-836 854 0
-837 854 0
-838 854 0
-839 854 0
-840 854 0
-841 854 0
-842 854 0
855 0
856 -854 0
854 -856 0
-834 857 0
-835 857 0
-836 857 0
-837 857 0
-838 857 0
-839 857 0
-840 857 0
-841 857 0
-842 857 0
858 0
859 -857 0
857 -859 0
-835 860 0
-836 860 0
-837 860 0
-838 860 0
-839 860 0
-840 860 0
-841 860 0
-842 860 0
861 0
862 -860 0
860 -862 0
-836 863 0
-837 863 0
-838 863 0
-839 863 0
-840 863 0
-841 863 0
-842 863 0
864 0
865 -863 0
863 -865 0
866 -863 0
863 -866 0
867 -863 0
863 -867 0
868 -863 0
863 -868 0
869 -863 0
863 -869 0
870 -863 0
863 -870 0
871 -863 0
863 -871 0
872 -873 0
872 -874 0
872 -875 0
872 -876 0
872 -877 0
872 -878 0
872 -879 0
872 -880 0
872 -881 0
872 -882 0
872 -883 0
884 0
885 -872 0
872 -885 0
-874 886 0
-875 886 0
-876 886 0
-877 886 0
-878 886 0
-879 886 0
-880 886 0
-881 886 0
-882 886 0
-883 886 0
887 0
888 -886 0
886 -888 0
-875 889 0
-876 889 0
-877 889 0
-878 889 0
-879 889 0
-880 889 0
-881 889 0
-882 889 0
-883 889 0
890 0
891 -889 0
889 -891 0
-876 892 0
-877 892 0
-878 892 0
-879 892 0
-880 892 0
-881 892 0
-882 892 0
-883 892 0
893 0
894 -892 0
892 -894 0
-877 895 0
-878 895 0
-879 895 0
-880 895 0
-881 895 0
-882 895 0
-883 895 0
896 0
897 -895 0
895 -897 0
-878 898 0
-879 898 0
-880 898 0
-881 898 0
-882 898 0
-883 898 0
899 0
900 -898 0
898 -900 0
901 -898 0
898 -901 0
902 -898 0
898 -902 0
903 -898 0
898 -903 0
904 -898 0
898 -904 0
905 -898 0
898 -905 0
906 -907 0
906 -908 0
906 -909 0
906 -910 0
906 -911 0
906 -912 0
906 -913 0
906 -914 0
906 -915 0
906 -916 0
906 -917 0
906 -918 0
906 -919 0
906 -920 0
921 0
922 -906 0
906 -922 0
-908 923 0
-909 923 0
-910 923 0
-911 923 0
-912 923 0
-913 923 0
-914 923 0
-915 923 0
-916 923 0
-917 923 0
-918 923 0
-919 923 0
-920 923 0
924 0
925 -923 0
923 -925 0
-909 926 0
-910 926 0
-911 926 0
-912 926 0
-913 926 0
-914 926 0
-915 926 0
-916 926 0
-917 926 0
-918 926 0
-919 926 0
-920 926 0
927 0
928 -926 0
926 -928 0
-910 929 0
-911 929 0
-912 929 0
-913 929 0
-914 929 0
-915 929 0
-916 929 0
-917 929 0
-918 929 0
-919 929 0
-920 929 0
930 0
931 -929 0
929 -931 0
-911 932 0
-912 932 0
-913 932 0
-914 932 0
-915 932 0
-916 932 0
-917 932 0
-918 932 0
-919 932 0
-920 932 0
933 0
934 -932 0
932 -934 0
-912 935 0
-913 935 0
-914 935 0
-915 935 0
-916 935 0
-917 935 0
-918 935 0
-919 935 0
-920 935 0
936 0
937 -935 0
935 -937 0
-913 938 0
-914 938 0
-915 938 0
-916 938 0
-917 938 0
-918 938 0
-919 938 0
-920 938 0
939 0
940 -938 0
938 -940 0
941 -938 0
938 -941 0
942 -938 0
938 -942 0
943 -938 0
938 -943 0
944 -938 0
938 -944 0
945 -938 0
938 -945 0
946 -938 0
938 -946 0
947 -938 0
938 -947 0
948 -949 0
949 -948 0
950 -951 0
951 -950 0
952 -953 0
953 -952 0
954 -955 0
955 -954 0
956 -957 0
957 -956 0
958 -959 0
959 -958 0
960 -961 0
961 -960 0
962 -963 0
963 -962 0
964 -965 0
965 -964 0
966 -967 0
967 -966 0
968 -969 0
969 -968 0
970 -971 0
971 -970 0
972 -973 0
973 -972 0
974 -975 0
975 -974 0
976 -977 0
977 -976 0
978 -979 0
979 -978 0
980 -981 0
981 -980 0
982 -983 0
983 -982 0
984 -985 0
985 -984 0
986 -987 0
987 -986 0
988 -989 0
989 -988 0
990 -991 0
991 -990 0
992 -993 0
993 -992 0
994 -995 0
995 -994 0
996 -997 0
997 -996 0
17 0
55 0
87 0
123 0
164 0
196 0
234 0
278 0
313 0
355 0
392 0
434 0
472 0
507 0
551 0
587 0
618 0
647 0
692 0
738 0
771 0
802 0
844 0
885 0
922 0
-948 0
-950 0
-952 0
-954 0
-956 0
-958 0
-960 0
-962 0
-964 0
-966 0
-968 0
-970 0
-972 0
-974 0
-976 0
-978 0
-980 0
-982 0
-984 0
-986 0
-988 0
-990 0
-992 0
-994 0
-996 0
46 -383 0
383 -46 0
47 -384 0
384 -47 0
48 -385 0
385 -48 0
49 -386 0
386 -49 0
50 -387 0
387 -50 0
51 -388 0
388 -51 0
52 -389 0
389 -52 0
53 -390 0
390 -53 0
47 -763 0
763 -47 0
48 -764 0
764 -48 0
49 -765 0
765 -49 0
50 -766 0
766 -50 0
51 -767 0
767 -51 0
52 -768 0
768 -52 0
53 -769 0
769 -53 0
115 -273 0
273 -115 0
116 -274 0
274 -116 0
117 -275 0
275 -117 0
118 -276 0
276 -118 0
119 -270 0
270 -119 0
120 -271 0
271 -120 0
121 -272 0
272 -121 0
115 -470 0
470 -115 0
116 -464 0
464 -116 0
117 -465 0
465 -117 0
118 -466 0
466 -118 0
119 -467 0
467 -119 0
120 -468 0
468 -120 0
121 -469 0
469 -121 0
226 -549 0
549 -226 0
227 -543 0
543 -227 0
228 -544 0
544 -228 0
229 -545 0
545 -229 0
230 -546 0
546 -230 0
231 -547 0
547 -231 0
232 -548 0
548 -232 0
270 -467 0
467 -270 0
271 -468 0
468 -271 0
272 -469 0
469 -272 0
273 -470 0
470 -273 0
274 -464 0
464 -274 0
275 -465 0
465 -275 0
276 -466 0
466 -276 0
301 -832 0
832 -301 0
302 -833 0
833 -302 0
303 -834 0
834 -303 0
304 -835 0
835 -304 0
305 -836 0
836 -305 0
306 -837 0
837 -306 0
307 -838 0
838 -307 0
308 -839 0
839 -308 0
309 -840 0
840 -309 0
310 -841 0
841 -310 0
311 -842 0
842 -311 0
384 -763 0
763 -384 0
385 -764 0
764 -385 0
386 -765 0
765 -386 0
387 -766 0
766 -387 0
388 -767 0
767 -388 0
389 -768 0
768 -389 0
390 -769 0
769 -390 0
949 -951 0
951 -949 0
949 -953 0
953 -949 0
949 -955 0
955 -949 0
949 -957 0
957 -949 0
949 -959 0
959 -949 0
949 -961 0
961 -949 0
949 -963 0
963 -949 0
949 -965 0
965 -949 0
949 -967 0
967 -949 0
949 -969 0
969 -949 0
949 -971 0
971 -949 0
949 -973 0
973 -949 0
949 -975 0
975 -949 0
949 -977 0
977 -949 0
949 -979 0
979 -949 0
949 -981 0
981 -949 0
949 -983 0
983 -949 0
949 -985 0
985 -949 0
949 -987 0
987 -949 0
949 -989 0
989 -949 0
949 -991 0
991 -949 0
949 -993 0
993 -949 0
949 -995 0
995 -949 0
949 -997 0
997 -949 0
951 -953 0
953 -951 0
951 -955 0
955 -951 0
951 -957 0
957 -951 0
951 -959 0
959 -951 0
951 -961 0
961 -951 0
951 -963 0
963 -951 0
951 -965 0
965 -951 0
951 -967 0
967 -951 0
951 -969 0
969 -951 0
951 -971 0
971 -951 0
951 -973 0
973 -951 0
951 -975 0
975 -951 0
951 -977 0
977 -951 0
951 -979 0
979 -951 0
951 -981 0
981 -951 0
951 -983 0
983 -951 0
951 -985 0
985 -951 0
951 -987 0
987 -951 0
951 -989 0
989 -951 0
951 -991 0
991 -951 0
951 -993 0
993 -951 0
951 -995 0
995 -951 0
951 -997 0
997 -951 0
953 -955 0
955 -953 0
953 -957 0
957 -953 0
953 -959 0
959 -953 0
953 -961 0
961 -953 0
953 -963 0
963 -953 0
953 -965 0
965 -953 0
953 -967 0
967 -953 0
953 -969 0
969 -953 0
953 -971 0
971 -953 0
953 -973 0
973 -953 0
953 -975 0
975 -953 0
953 -977 0
977 -953 0
953 -979 0
979 -953 0
953 -981 0
981 -953 0
953 -983 0
983 -953 0
953 -985 0
985 -953 0
953 -987 0
987 -953 0
953 -989 0
989 -953 0
953 -991 0
991 -953 0
953 -993 0
993 -953 0
953 -995 0
995 -953 0
953 -997 0
997 -953 0
955 -957 0
957 -955 0
955 -959 0
959 -955 0
955 -961 0
961 -955 0
955 -963 0
963 -955 0
955 -965 0
965 -955 0
955 -967 0
967 -955 0
955 -969 0
969 -955 0
955 -971 0
971 -955 0
955 -973 0
973 -955 0
955 -975 0
975 -955 0
955 -977 0
977 -955 0
955 -979 0
979 -955 0
955 -981 0
981 -955 0
955 -983 0
983 -955 0
955 -985 0
985 -955 0
955 -987 0
987 -955 0
955 -989 0
989 -955 0
955 -991 0
991 -955 0
955 -993 0
993 -955 0
955 -995 0
995 -955 0
955 -997 0
997 -955 0
957 -959 0
959 -957 0
957 -961 0
961 -957 0
957 -963 0
963 -957 0
957 -965 0
965 -957 0
957 -967 0
967 -957 0
957 -969 0
969 -957 0
957 -971 0
971 -957 0
957 -973 0
973 -957 0
957 -975 0
975 -957 0
957 -977 0
977 -957 0
957 -979 0
979 -957 0
957 -981 0
981 -957 0
957 -983 0
983 -957 0
957 -985 0
985 -957 0
957 -987 0
987 -957 0
957 -989 0
989 -957 0
957 -991 0
991 -957 0
957 -993 0
993 -957 0
957 -995 0
995 -957 0
957 -997 0
997 -957 0
959 -961 0
961 -959 0
959 -963 0
963 -959 0
959 -965 0
965 -959 0
959 -967 0
967 -959 0
959 -969 0
969 -959 0
959 -971 0
971 -959 0
959 -973 0
973 -959 0
959 -975 0
975 -959 0
959 -977 0
977 -959 0
959 -979 0
979 -959 0
959 -981 0
981 -959 0
959 -983 0
983 -959 0
959 -985 0
985 -959 0
959 -987 0
987 -959 0
959 -989 0
989 -959 0
959 -991 0
991 -959 0
959 -993 0
993 -959 0
959 -995 0
995 -959 0
959 -997 0
997 -959 0
961 -963 0
963 -961 0
961 -965 0
965 -961 0
961 -967 0
967 -961 0
961 -969 0
969 -961 0
961 -971 0
971 -961 0
961 -973 0
973 -961 0
961 -975 0
975 -961 0
961 -977 0
977 -961 0
961 -979 0
979 -961 0
961 -981 0
981 -961 0
961 -983 0
983 -961 0
961 -985 0
985 -961 0
961 -987 0
987 -961 0
961 -989 0
989 -961 0
961 -991 0
991 -961 0
961 -993 0
993 -961 0
961 -995 0
995 -961 0
961 -997 0
997 -961 0
963 -965 0
965 -963 0
963 -967 0
967 -963 0
963 -969 0
969 -963 0
963 -971 0
971 -963 0
963 -973 0
973 -963 0
963 -975 0
975 -963 0
963 -977 0
977 -963 0
963 -979 0
979 -963 0
963 -981 0
981 -963 0
963 -983 0
983 -963 0
963 -985 0
985 -963 0
963 -987 0
987 -963 0
963 -989 0
989 -963 0
963 -991 0
991 -963 0
963 -993 0
993 -963 0
963 -995 0
995 -963 0
963 -997 0
997 -963 0
965 -967 0
967 -965 0
965 -969 0
969 -965 0
965 -971 0
971 -965 0
965 -973 0
973 -965 0
965 -975 0
975 -965 0
965 -977 0
977 -965 0
965 -979 0
979 -965 0
965 -981 0
981 -965 0
965 -983 0
983 -965 0
965 -985 0
985 -965 0
965 -987 0
987 -965 0
965 -989 0
989 -965 0
965 -991 0
991 -965 0
965 -993 0
993 -965 0
965 -995 0
995 -965 0
965 -997 0
997 -965 0
967 -969 0
969 -967 0
967 -971 0
971 -967 0
967 -973 0
973 -967 0
967 -975 0
975 -967 0
967 -977 0
977 -967 0
967 -979 0
979 -967 0
967 -981 0
981 -967 0
967 -983 0
983 -967 0
967 -985 0
985 -967 0
967 -987 0
987 -967 0
967 -989 0
989 -967 0
967 -991 0
991 -967 0
967 -993 0
993 -967 0
967 -995 0
995 -967 0
967 -997 0
997 -967 0
969 -971 0
971 -969 0
969 -973 0
973 -969 0
969 -975 0
975 -969 0
969 -977 0
977 -969 0
969 -979 0
979 -969 0
969 -981 0
981 -969 0
969 -983 0
983 -969 0
969 -985 0
985 -969 0
969 -987 0
987 -969 0
969 -989 0
989 -969 0
969 -991 0
991 -969 0
969 -993 0
993 -969 0
969 -995 0
995 -969 0
969 -997 0
997 -969 0
971 -973 0
973 -971 0
971 -975 0
975 -971 0
971 -977 0
977 -971 0
971 -979 0
979 -971 0
971 -981 0
981 -971 0
971 -983 0
983 -971 0
971 -985 0
985 -971 0
971 -987 0
987 -971 0
971 -989 0
989 -971 0
971 -991 0
991 -971 0
971 -993 0
993 -971 0
971 -995 0
995 -971 0
971 -997 0
997 -971 0
973 -975 0
975 -973 0
973 -977 0
977 -973 0
973 -979 0
979 -973 0
973 -981 0
981 -973 0
973 -983 0
983 -973 0
973 -985 0
985 -973 0
973 -987 0
987 -973 0
973 -989 0
989 -973 0
973 -991 0
991 -973 0
973 -993 0
993 -973 0
973 -995 0
995 -973 0
973 -997 0
997 -973 0
975 -977 0
977 -975 0
975 -979 0
979 -975 0
975 -981 0
981 -975 0
975 -983 0
983 -975 0
975 -985 0
985 -975 0
975 -987 0
987 -975 0
975 -989 0
989 -975 0
975 -991 0
991 -975 0
975 -993 0
993 -975 0
975 -995 0
995 -975 0
975 -997 0
997 -975 0
977 -979 0
979 -977 0
977 -981 0
981 -977 0
977 -983 0
983 -977 0
977 -985 0
985 -977 0
977 -987 0
987 -977 0
977 -989 0
989 -977 0
977 -991 0
991 -977 0
977 -993 0
993 -977 0
977 -995 0
995 -977 0
977 -997 0
997 -977 0
979 -981 0
981 -979 0
979 -983 0
983 -979 0
979 -985 0
985 -979 0
979 -987 0
987 -979 0
979 -989 0
989 -979 0
979 -991 0
991 -979 0
979 -993 0
993 -979 0
979 -995 0
995 -979 0
979 -997 0
997 -979 0
981 -983 0
983 -981 0
981 -985 0
985 -981 0
981 -987 0
987 -981 0
981 -989 0
989 -981 0
981 -991 0
991 -981 0
981 -993 0
993 -981 0
981 -995 0
995 -981 0
981 -997 0
997 -981 0
983 -985 0
985 -983 0
983 -987 0
987 -983 0
983 -989 0
989 -983 0
983 -991 0
991 -983 0
983 -993 0
993 -983 0
983 -995 0
995 -983 0
983 -997 0
997 -983 0
985 -987 0
987 -985 0
985 -989 0
989 -985 0
985 -991 0
991 -985 0
985 -993 0
993 -985 0
985 -995 0
995 -985 0
985 -997 0
997 -985 0
987 -989 0
989 -987 0
987 -991 0
991 -987 0
987 -993 0
993 -987 0
987 -995 0
995 -987 0
987 -997 0
997 -987 0
989 -991 0
991 -989 0
989 -993 0
993 -989 0
989 -995 0
995 -989 0
989 -997 0
997 -989 0
991 -993 0
993 -991 0
991 -995 0
995 -991 0
991 -997 0
997 -991 0
993 -995 0
995 -993 0
993 -997 0
997 -993 0
995 -997 0
997 -995 0
